GLPSOL--GLPK LP/MIP Solver 5.0
Parameter(s) specified in the command line:
 --lp ../modeles/20_124.lp --log 20_124.log
Reading problem data from '../modeles/20_124.lp'...
2561 rows, 5000 columns, 17420 non-zeros
2480 integer variables, all of which are binary
7587 lines were read
GLPK Integer Optimizer 5.0
2561 rows, 5000 columns, 17420 non-zeros
2480 integer variables, all of which are binary
Preprocessing...
2440 constraint coefficient(s) were reduced
2561 rows, 4980 columns, 17400 non-zeros
2480 integer variables, all of which are binary
Scaling...
 A: min|aij| =  1.041e-03  max|aij| =  4.000e+00  ratio =  3.844e+03
GM: min|aij| =  1.270e-01  max|aij| =  7.874e+00  ratio =  6.200e+01
EQ: min|aij| =  1.613e-02  max|aij| =  1.000e+00  ratio =  6.200e+01
2N: min|aij| =  1.562e-02  max|aij| =  1.740e+00  ratio =  1.114e+02
Constructing initial basis...
Size of triangular part is 2561
Solving LP relaxation...
GLPK Simplex Optimizer 5.0
2561 rows, 4980 columns, 17400 non-zeros
      0: obj =   4.000000000e+01 inf =   9.950e+01 (41)
Perturbing LP to avoid stalling [199]...
    339: obj =  -4.819731876e-01 inf =   0.000e+00 (0)
Removing LP perturbation [933]...
*   933: obj =  -4.468982630e+00 inf =   2.606e-14 (0)
OPTIMAL LP SOLUTION FOUND
Integer optimization begins...
Long-step dual simplex will be used
+   933: mip =     not found yet >=              -inf        (1; 0)
+   936: >>>>>  -4.468982630e+00 >=  -4.468982630e+00 < 0.1% (3; 0)
+   936: mip =  -4.468982630e+00 >=     tree is empty   0.0% (0; 5)
INTEGER OPTIMAL SOLUTION FOUND
Time used:   0.1 secs
Memory used: 7.2 Mb (7598972 bytes)
